units           metal
dimension       3
boundary        p p p
atom_style      atomic

region          box block 0 20 0 20 0 20
create_box      1 box
create_atoms    1 random 20000 12345 box

mass            1 39.948

velocity        all create 500.0 98765 mom yes rot no dist gaussian

dump            vdump all custom 1 vel-500k.dump id vx vy vz
run             0

