units       metal
dimension   3
atom_style  atomic
boundary    f f f

region      box block 0 100 0 100 0 100
create_box  1 box
create_atoms 1 random 100 12345 box

mass        1 39.948
pair_style  none

velocity    all create 300.0 12345 mom yes
fix         1 all nve

fix walls all wall/reflect xlo 0 xhi 100 ylo 0 yhi 100 zlo 0 zhi 100

dump        1 all custom 50 traj.dump id x y z vx vy vz
run         20000


