LAMMPS data file

1000 atoms
2 atom types

0.0 40.0 xlo xhi
0.0 40.0 ylo yhi
0.0 40.0 zlo zhi

Masses

1 55.845
2 15.999

Atoms

1 1 0.0 2.0 2.0 8.0
2 1 0.0 6.0 2.0 8.0
3 1 0.0 10.0 2.0 8.0
4 1 0.0 14.0 2.0 8.0
5 1 0.0 18.0 2.0 8.0
6 1 0.0 22.0 2.0 8.0
7 1 0.0 26.0 2.0 8.0
8 1 0.0 30.0 2.0 8.0
9 1 0.0 34.0 2.0 8.0
10 1 0.0 38.0 2.0 8.0
11 1 0.0 2.0 6.0 8.0
12 1 0.0 6.0 6.0 8.0
13 1 0.0 10.0 6.0 8.0
14 1 0.0 14.0 6.0 8.0
15 1 0.0 18.0 6.0 8.0
16 1 0.0 22.0 6.0 8.0
17 1 0.0 26.0 6.0 8.0
18 1 0.0 30.0 6.0 8.0
19 1 0.0 34.0 6.0 8.0
20 1 0.0 38.0 6.0 8.0
21 1 0.0 2.0 10.0 8.0
22 1 0.0 6.0 10.0 8.0
23 1 0.0 10.0 10.0 8.0
24 1 0.0 14.0 10.0 8.0
25 1 0.0 18.0 10.0 8.0
26 1 0.0 22.0 10.0 8.0
27 1 0.0 26.0 10.0 8.0
28 1 0.0 30.0 10.0 8.0
29 1 0.0 34.0 10.0 8.0
30 1 0.0 38.0 10.0 8.0
31 1 0.0 2.0 14.0 8.0
32 1 0.0 6.0 14.0 8.0
33 1 0.0 10.0 14.0 8.0
34 1 0.0 14.0 14.0 8.0
35 1 0.0 18.0 14.0 8.0
36 1 0.0 22.0 14.0 8.0
37 1 0.0 26.0 14.0 8.0
38 1 0.0 30.0 14.0 8.0
39 1 0.0 34.0 14.0 8.0
40 1 0.0 38.0 14.0 8.0
41 1 0.0 2.0 18.0 8.0
42 1 0.0 6.0 18.0 8.0
43 1 0.0 10.0 18.0 8.0
44 1 0.0 14.0 18.0 8.0
45 1 0.0 18.0 18.0 8.0
46 1 0.0 22.0 18.0 8.0
47 1 0.0 26.0 18.0 8.0
48 1 0.0 30.0 18.0 8.0
49 1 0.0 34.0 18.0 8.0
50 1 0.0 38.0 18.0 8.0
51 1 0.0 2.0 22.0 8.0
52 1 0.0 6.0 22.0 8.0
53 1 0.0 10.0 22.0 8.0
54 1 0.0 14.0 22.0 8.0
55 1 0.0 18.0 22.0 8.0
56 1 0.0 22.0 22.0 8.0
57 1 0.0 26.0 22.0 8.0
58 1 0.0 30.0 22.0 8.0
59 1 0.0 34.0 22.0 8.0
60 1 0.0 38.0 22.0 8.0
61 1 0.0 2.0 26.0 8.0
62 1 0.0 6.0 26.0 8.0
63 1 0.0 10.0 26.0 8.0
64 1 0.0 14.0 26.0 8.0
65 1 0.0 18.0 26.0 8.0
66 1 0.0 22.0 26.0 8.0
67 1 0.0 26.0 26.0 8.0
68 1 0.0 30.0 26.0 8.0
69 1 0.0 34.0 26.0 8.0
70 1 0.0 38.0 26.0 8.0
71 1 0.0 2.0 30.0 8.0
72 1 0.0 6.0 30.0 8.0
73 1 0.0 10.0 30.0 8.0
74 1 0.0 14.0 30.0 8.0
75 1 0.0 18.0 30.0 8.0
76 1 0.0 22.0 30.0 8.0
77 1 0.0 26.0 30.0 8.0
78 1 0.0 30.0 30.0 8.0
79 1 0.0 34.0 30.0 8.0
80 1 0.0 38.0 30.0 8.0
81 1 0.0 2.0 34.0 8.0
82 1 0.0 6.0 34.0 8.0
83 1 0.0 10.0 34.0 8.0
84 1 0.0 14.0 34.0 8.0
85 1 0.0 18.0 34.0 8.0
86 1 0.0 22.0 34.0 8.0
87 1 0.0 26.0 34.0 8.0
88 1 0.0 30.0 34.0 8.0
89 1 0.0 34.0 34.0 8.0
90 1 0.0 38.0 34.0 8.0
91 1 0.0 2.0 38.0 8.0
92 1 0.0 6.0 38.0 8.0
93 1 0.0 10.0 38.0 8.0
94 1 0.0 14.0 38.0 8.0
95 1 0.0 18.0 38.0 8.0
96 1 0.0 22.0 38.0 8.0
97 1 0.0 26.0 38.0 8.0
98 1 0.0 30.0 38.0 8.0
99 1 0.0 34.0 38.0 8.0
100 1 0.0 38.0 38.0 8.0
101 1 0.0 2.0 2.0 12.0
102 1 0.0 6.0 2.0 12.0
103 1 0.0 10.0 2.0 12.0
104 1 0.0 14.0 2.0 12.0
105 1 0.0 18.0 2.0 12.0
106 1 0.0 22.0 2.0 12.0
107 1 0.0 26.0 2.0 12.0
108 1 0.0 30.0 2.0 12.0
109 1 0.0 34.0 2.0 12.0
110 1 0.0 38.0 2.0 12.0
111 1 0.0 2.0 6.0 12.0
112 1 0.0 6.0 6.0 12.0
113 1 0.0 10.0 6.0 12.0
114 1 0.0 14.0 6.0 12.0
115 1 0.0 18.0 6.0 12.0
116 1 0.0 22.0 6.0 12.0
117 1 0.0 26.0 6.0 12.0
118 1 0.0 30.0 6.0 12.0
119 1 0.0 34.0 6.0 12.0
120 1 0.0 38.0 6.0 12.0
121 1 0.0 2.0 10.0 12.0
122 1 0.0 6.0 10.0 12.0
123 1 0.0 10.0 10.0 12.0
124 1 0.0 14.0 10.0 12.0
125 1 0.0 18.0 10.0 12.0
126 1 0.0 22.0 10.0 12.0
127 1 0.0 26.0 10.0 12.0
128 1 0.0 30.0 10.0 12.0
129 1 0.0 34.0 10.0 12.0
130 1 0.0 38.0 10.0 12.0
131 1 0.0 2.0 14.0 12.0
132 1 0.0 6.0 14.0 12.0
133 1 0.0 10.0 14.0 12.0
134 1 0.0 14.0 14.0 12.0
135 1 0.0 18.0 14.0 12.0
136 1 0.0 22.0 14.0 12.0
137 1 0.0 26.0 14.0 12.0
138 1 0.0 30.0 14.0 12.0
139 1 0.0 34.0 14.0 12.0
140 1 0.0 38.0 14.0 12.0
141 1 0.0 2.0 18.0 12.0
142 1 0.0 6.0 18.0 12.0
143 1 0.0 10.0 18.0 12.0
144 1 0.0 14.0 18.0 12.0
145 1 0.0 18.0 18.0 12.0
146 1 0.0 22.0 18.0 12.0
147 1 0.0 26.0 18.0 12.0
148 1 0.0 30.0 18.0 12.0
149 1 0.0 34.0 18.0 12.0
150 1 0.0 38.0 18.0 12.0
151 1 0.0 2.0 22.0 12.0
152 1 0.0 6.0 22.0 12.0
153 1 0.0 10.0 22.0 12.0
154 1 0.0 14.0 22.0 12.0
155 1 0.0 18.0 22.0 12.0
156 1 0.0 22.0 22.0 12.0
157 1 0.0 26.0 22.0 12.0
158 1 0.0 30.0 22.0 12.0
159 1 0.0 34.0 22.0 12.0
160 1 0.0 38.0 22.0 12.0
161 1 0.0 2.0 26.0 12.0
162 1 0.0 6.0 26.0 12.0
163 1 0.0 10.0 26.0 12.0
164 1 0.0 14.0 26.0 12.0
165 1 0.0 18.0 26.0 12.0
166 1 0.0 22.0 26.0 12.0
167 1 0.0 26.0 26.0 12.0
168 1 0.0 30.0 26.0 12.0
169 1 0.0 34.0 26.0 12.0
170 1 0.0 38.0 26.0 12.0
171 1 0.0 2.0 30.0 12.0
172 1 0.0 6.0 30.0 12.0
173 1 0.0 10.0 30.0 12.0
174 1 0.0 14.0 30.0 12.0
175 1 0.0 18.0 30.0 12.0
176 1 0.0 22.0 30.0 12.0
177 1 0.0 26.0 30.0 12.0
178 1 0.0 30.0 30.0 12.0
179 1 0.0 34.0 30.0 12.0
180 1 0.0 38.0 30.0 12.0
181 1 0.0 2.0 34.0 12.0
182 1 0.0 6.0 34.0 12.0
183 1 0.0 10.0 34.0 12.0
184 1 0.0 14.0 34.0 12.0
185 1 0.0 18.0 34.0 12.0
186 1 0.0 22.0 34.0 12.0
187 1 0.0 26.0 34.0 12.0
188 1 0.0 30.0 34.0 12.0
189 1 0.0 34.0 34.0 12.0
190 1 0.0 38.0 34.0 12.0
191 1 0.0 2.0 38.0 12.0
192 1 0.0 6.0 38.0 12.0
193 1 0.0 10.0 38.0 12.0
194 1 0.0 14.0 38.0 12.0
195 1 0.0 18.0 38.0 12.0
196 1 0.0 22.0 38.0 12.0
197 1 0.0 26.0 38.0 12.0
198 1 0.0 30.0 38.0 12.0
199 1 0.0 34.0 38.0 12.0
200 1 0.0 38.0 38.0 12.0
201 1 0.0 2.0 2.0 16.0
202 1 0.0 6.0 2.0 16.0
203 1 0.0 10.0 2.0 16.0
204 1 0.0 14.0 2.0 16.0
205 1 0.0 18.0 2.0 16.0
206 1 0.0 22.0 2.0 16.0
207 1 0.0 26.0 2.0 16.0
208 1 0.0 30.0 2.0 16.0
209 1 0.0 34.0 2.0 16.0
210 1 0.0 38.0 2.0 16.0
211 1 0.0 2.0 6.0 16.0
212 1 0.0 6.0 6.0 16.0
213 1 0.0 10.0 6.0 16.0
214 1 0.0 14.0 6.0 16.0
215 1 0.0 18.0 6.0 16.0
216 1 0.0 22.0 6.0 16.0
217 1 0.0 26.0 6.0 16.0
218 1 0.0 30.0 6.0 16.0
219 1 0.0 34.0 6.0 16.0
220 1 0.0 38.0 6.0 16.0
221 1 0.0 2.0 10.0 16.0
222 1 0.0 6.0 10.0 16.0
223 1 0.0 10.0 10.0 16.0
224 1 0.0 14.0 10.0 16.0
225 1 0.0 18.0 10.0 16.0
226 1 0.0 22.0 10.0 16.0
227 1 0.0 26.0 10.0 16.0
228 1 0.0 30.0 10.0 16.0
229 1 0.0 34.0 10.0 16.0
230 1 0.0 38.0 10.0 16.0
231 1 0.0 2.0 14.0 16.0
232 1 0.0 6.0 14.0 16.0
233 1 0.0 10.0 14.0 16.0
234 1 0.0 14.0 14.0 16.0
235 1 0.0 18.0 14.0 16.0
236 1 0.0 22.0 14.0 16.0
237 1 0.0 26.0 14.0 16.0
238 1 0.0 30.0 14.0 16.0
239 1 0.0 34.0 14.0 16.0
240 1 0.0 38.0 14.0 16.0
241 1 0.0 2.0 18.0 16.0
242 1 0.0 6.0 18.0 16.0
243 1 0.0 10.0 18.0 16.0
244 1 0.0 14.0 18.0 16.0
245 1 0.0 18.0 18.0 16.0
246 1 0.0 22.0 18.0 16.0
247 1 0.0 26.0 18.0 16.0
248 1 0.0 30.0 18.0 16.0
249 1 0.0 34.0 18.0 16.0
250 1 0.0 38.0 18.0 16.0
251 1 0.0 2.0 22.0 16.0
252 1 0.0 6.0 22.0 16.0
253 1 0.0 10.0 22.0 16.0
254 1 0.0 14.0 22.0 16.0
255 1 0.0 18.0 22.0 16.0
256 1 0.0 22.0 22.0 16.0
257 1 0.0 26.0 22.0 16.0
258 1 0.0 30.0 22.0 16.0
259 1 0.0 34.0 22.0 16.0
260 1 0.0 38.0 22.0 16.0
261 1 0.0 2.0 26.0 16.0
262 1 0.0 6.0 26.0 16.0
263 1 0.0 10.0 26.0 16.0
264 1 0.0 14.0 26.0 16.0
265 1 0.0 18.0 26.0 16.0
266 1 0.0 22.0 26.0 16.0
267 1 0.0 26.0 26.0 16.0
268 1 0.0 30.0 26.0 16.0
269 1 0.0 34.0 26.0 16.0
270 1 0.0 38.0 26.0 16.0
271 1 0.0 2.0 30.0 16.0
272 1 0.0 6.0 30.0 16.0
273 1 0.0 10.0 30.0 16.0
274 1 0.0 14.0 30.0 16.0
275 1 0.0 18.0 30.0 16.0
276 1 0.0 22.0 30.0 16.0
277 1 0.0 26.0 30.0 16.0
278 1 0.0 30.0 30.0 16.0
279 1 0.0 34.0 30.0 16.0
280 1 0.0 38.0 30.0 16.0
281 1 0.0 2.0 34.0 16.0
282 1 0.0 6.0 34.0 16.0
283 1 0.0 10.0 34.0 16.0
284 1 0.0 14.0 34.0 16.0
285 1 0.0 18.0 34.0 16.0
286 1 0.0 22.0 34.0 16.0
287 1 0.0 26.0 34.0 16.0
288 1 0.0 30.0 34.0 16.0
289 1 0.0 34.0 34.0 16.0
290 1 0.0 38.0 34.0 16.0
291 1 0.0 2.0 38.0 16.0
292 1 0.0 6.0 38.0 16.0
293 1 0.0 10.0 38.0 16.0
294 1 0.0 14.0 38.0 16.0
295 1 0.0 18.0 38.0 16.0
296 1 0.0 22.0 38.0 16.0
297 1 0.0 26.0 38.0 16.0
298 1 0.0 30.0 38.0 16.0
299 1 0.0 34.0 38.0 16.0
300 1 0.0 38.0 38.0 16.0
301 1 0.0 2.0 2.0 20.0
302 1 0.0 6.0 2.0 20.0
303 1 0.0 10.0 2.0 20.0
304 1 0.0 14.0 2.0 20.0
305 1 0.0 18.0 2.0 20.0
306 1 0.0 22.0 2.0 20.0
307 1 0.0 26.0 2.0 20.0
308 1 0.0 30.0 2.0 20.0
309 1 0.0 34.0 2.0 20.0
310 1 0.0 38.0 2.0 20.0
311 1 0.0 2.0 6.0 20.0
312 1 0.0 6.0 6.0 20.0
313 1 0.0 10.0 6.0 20.0
314 1 0.0 14.0 6.0 20.0
315 1 0.0 18.0 6.0 20.0
316 1 0.0 22.0 6.0 20.0
317 1 0.0 26.0 6.0 20.0
318 1 0.0 30.0 6.0 20.0
319 1 0.0 34.0 6.0 20.0
320 1 0.0 38.0 6.0 20.0
321 1 0.0 2.0 10.0 20.0
322 1 0.0 6.0 10.0 20.0
323 1 0.0 10.0 10.0 20.0
324 1 0.0 14.0 10.0 20.0
325 1 0.0 18.0 10.0 20.0
326 1 0.0 22.0 10.0 20.0
327 1 0.0 26.0 10.0 20.0
328 1 0.0 30.0 10.0 20.0
329 1 0.0 34.0 10.0 20.0
330 1 0.0 38.0 10.0 20.0
331 1 0.0 2.0 14.0 20.0
332 1 0.0 6.0 14.0 20.0
333 1 0.0 10.0 14.0 20.0
334 1 0.0 14.0 14.0 20.0
335 1 0.0 18.0 14.0 20.0
336 1 0.0 22.0 14.0 20.0
337 1 0.0 26.0 14.0 20.0
338 1 0.0 30.0 14.0 20.0
339 1 0.0 34.0 14.0 20.0
340 1 0.0 38.0 14.0 20.0
341 1 0.0 2.0 18.0 20.0
342 1 0.0 6.0 18.0 20.0
343 1 0.0 10.0 18.0 20.0
344 1 0.0 14.0 18.0 20.0
345 1 0.0 18.0 18.0 20.0
346 1 0.0 22.0 18.0 20.0
347 1 0.0 26.0 18.0 20.0
348 1 0.0 30.0 18.0 20.0
349 1 0.0 34.0 18.0 20.0
350 1 0.0 38.0 18.0 20.0
351 1 0.0 2.0 22.0 20.0
352 1 0.0 6.0 22.0 20.0
353 1 0.0 10.0 22.0 20.0
354 1 0.0 14.0 22.0 20.0
355 1 0.0 18.0 22.0 20.0
356 1 0.0 22.0 22.0 20.0
357 1 0.0 26.0 22.0 20.0
358 1 0.0 30.0 22.0 20.0
359 1 0.0 34.0 22.0 20.0
360 1 0.0 38.0 22.0 20.0
361 1 0.0 2.0 26.0 20.0
362 1 0.0 6.0 26.0 20.0
363 1 0.0 10.0 26.0 20.0
364 1 0.0 14.0 26.0 20.0
365 1 0.0 18.0 26.0 20.0
366 1 0.0 22.0 26.0 20.0
367 1 0.0 26.0 26.0 20.0
368 1 0.0 30.0 26.0 20.0
369 1 0.0 34.0 26.0 20.0
370 1 0.0 38.0 26.0 20.0
371 1 0.0 2.0 30.0 20.0
372 1 0.0 6.0 30.0 20.0
373 1 0.0 10.0 30.0 20.0
374 1 0.0 14.0 30.0 20.0
375 1 0.0 18.0 30.0 20.0
376 1 0.0 22.0 30.0 20.0
377 1 0.0 26.0 30.0 20.0
378 1 0.0 30.0 30.0 20.0
379 1 0.0 34.0 30.0 20.0
380 1 0.0 38.0 30.0 20.0
381 1 0.0 2.0 34.0 20.0
382 1 0.0 6.0 34.0 20.0
383 1 0.0 10.0 34.0 20.0
384 1 0.0 14.0 34.0 20.0
385 1 0.0 18.0 34.0 20.0
386 1 0.0 22.0 34.0 20.0
387 1 0.0 26.0 34.0 20.0
388 1 0.0 30.0 34.0 20.0
389 1 0.0 34.0 34.0 20.0
390 1 0.0 38.0 34.0 20.0
391 1 0.0 2.0 38.0 20.0
392 1 0.0 6.0 38.0 20.0
393 1 0.0 10.0 38.0 20.0
394 1 0.0 14.0 38.0 20.0
395 1 0.0 18.0 38.0 20.0
396 1 0.0 22.0 38.0 20.0
397 1 0.0 26.0 38.0 20.0
398 1 0.0 30.0 38.0 20.0
399 1 0.0 34.0 38.0 20.0
400 1 0.0 38.0 38.0 20.0
401 1 0.0 2.0 2.0 24.0
402 1 0.0 6.0 2.0 24.0
403 1 0.0 10.0 2.0 24.0
404 1 0.0 14.0 2.0 24.0
405 1 0.0 18.0 2.0 24.0
406 1 0.0 22.0 2.0 24.0
407 1 0.0 26.0 2.0 24.0
408 1 0.0 30.0 2.0 24.0
409 1 0.0 34.0 2.0 24.0
410 1 0.0 38.0 2.0 24.0
411 1 0.0 2.0 6.0 24.0
412 1 0.0 6.0 6.0 24.0
413 1 0.0 10.0 6.0 24.0
414 1 0.0 14.0 6.0 24.0
415 1 0.0 18.0 6.0 24.0
416 1 0.0 22.0 6.0 24.0
417 1 0.0 26.0 6.0 24.0
418 1 0.0 30.0 6.0 24.0
419 1 0.0 34.0 6.0 24.0
420 1 0.0 38.0 6.0 24.0
421 1 0.0 2.0 10.0 24.0
422 1 0.0 6.0 10.0 24.0
423 1 0.0 10.0 10.0 24.0
424 1 0.0 14.0 10.0 24.0
425 1 0.0 18.0 10.0 24.0
426 1 0.0 22.0 10.0 24.0
427 1 0.0 26.0 10.0 24.0
428 1 0.0 30.0 10.0 24.0
429 1 0.0 34.0 10.0 24.0
430 1 0.0 38.0 10.0 24.0
431 1 0.0 2.0 14.0 24.0
432 1 0.0 6.0 14.0 24.0
433 1 0.0 10.0 14.0 24.0
434 1 0.0 14.0 14.0 24.0
435 1 0.0 18.0 14.0 24.0
436 1 0.0 22.0 14.0 24.0
437 1 0.0 26.0 14.0 24.0
438 1 0.0 30.0 14.0 24.0
439 1 0.0 34.0 14.0 24.0
440 1 0.0 38.0 14.0 24.0
441 1 0.0 2.0 18.0 24.0
442 1 0.0 6.0 18.0 24.0
443 1 0.0 10.0 18.0 24.0
444 1 0.0 14.0 18.0 24.0
445 1 0.0 18.0 18.0 24.0
446 1 0.0 22.0 18.0 24.0
447 1 0.0 26.0 18.0 24.0
448 1 0.0 30.0 18.0 24.0
449 1 0.0 34.0 18.0 24.0
450 1 0.0 38.0 18.0 24.0
451 1 0.0 2.0 22.0 24.0
452 1 0.0 6.0 22.0 24.0
453 1 0.0 10.0 22.0 24.0
454 1 0.0 14.0 22.0 24.0
455 1 0.0 18.0 22.0 24.0
456 1 0.0 22.0 22.0 24.0
457 1 0.0 26.0 22.0 24.0
458 1 0.0 30.0 22.0 24.0
459 1 0.0 34.0 22.0 24.0
460 1 0.0 38.0 22.0 24.0
461 1 0.0 2.0 26.0 24.0
462 1 0.0 6.0 26.0 24.0
463 1 0.0 10.0 26.0 24.0
464 1 0.0 14.0 26.0 24.0
465 1 0.0 18.0 26.0 24.0
466 1 0.0 22.0 26.0 24.0
467 1 0.0 26.0 26.0 24.0
468 1 0.0 30.0 26.0 24.0
469 1 0.0 34.0 26.0 24.0
470 1 0.0 38.0 26.0 24.0
471 1 0.0 2.0 30.0 24.0
472 1 0.0 6.0 30.0 24.0
473 1 0.0 10.0 30.0 24.0
474 1 0.0 14.0 30.0 24.0
475 1 0.0 18.0 30.0 24.0
476 1 0.0 22.0 30.0 24.0
477 1 0.0 26.0 30.0 24.0
478 1 0.0 30.0 30.0 24.0
479 1 0.0 34.0 30.0 24.0
480 1 0.0 38.0 30.0 24.0
481 1 0.0 2.0 34.0 24.0
482 1 0.0 6.0 34.0 24.0
483 1 0.0 10.0 34.0 24.0
484 1 0.0 14.0 34.0 24.0
485 1 0.0 18.0 34.0 24.0
486 1 0.0 22.0 34.0 24.0
487 1 0.0 26.0 34.0 24.0
488 1 0.0 30.0 34.0 24.0
489 1 0.0 34.0 34.0 24.0
490 1 0.0 38.0 34.0 24.0
491 1 0.0 2.0 38.0 24.0
492 1 0.0 6.0 38.0 24.0
493 1 0.0 10.0 38.0 24.0
494 1 0.0 14.0 38.0 24.0
495 1 0.0 18.0 38.0 24.0
496 1 0.0 22.0 38.0 24.0
497 1 0.0 26.0 38.0 24.0
498 1 0.0 30.0 38.0 24.0
499 1 0.0 34.0 38.0 24.0
500 1 0.0 38.0 38.0 24.0
501 2 0.0 4.0 4.0 20.0
502 2 0.0 8.0 4.0 20.0
503 2 0.0 12.0 4.0 20.0
504 2 0.0 16.0 4.0 20.0
505 2 0.0 20.0 4.0 20.0
506 2 0.0 24.0 4.0 20.0
507 2 0.0 28.0 4.0 20.0
508 2 0.0 32.0 4.0 20.0
509 2 0.0 36.0 4.0 20.0
510 2 0.0 40.0 4.0 20.0
511 2 0.0 4.0 8.0 20.0
512 2 0.0 8.0 8.0 20.0
513 2 0.0 12.0 8.0 20.0
514 2 0.0 16.0 8.0 20.0
515 2 0.0 20.0 8.0 20.0
516 2 0.0 24.0 8.0 20.0
517 2 0.0 28.0 8.0 20.0
518 2 0.0 32.0 8.0 20.0
519 2 0.0 36.0 8.0 20.0
520 2 0.0 40.0 8.0 20.0
521 2 0.0 4.0 12.0 20.0
522 2 0.0 8.0 12.0 20.0
523 2 0.0 12.0 12.0 20.0
524 2 0.0 16.0 12.0 20.0
525 2 0.0 20.0 12.0 20.0
526 2 0.0 24.0 12.0 20.0
527 2 0.0 28.0 12.0 20.0
528 2 0.0 32.0 12.0 20.0
529 2 0.0 36.0 12.0 20.0
530 2 0.0 40.0 12.0 20.0
531 2 0.0 4.0 16.0 20.0
532 2 0.0 8.0 16.0 20.0
533 2 0.0 12.0 16.0 20.0
534 2 0.0 16.0 16.0 20.0
535 2 0.0 20.0 16.0 20.0
536 2 0.0 24.0 16.0 20.0
537 2 0.0 28.0 16.0 20.0
538 2 0.0 32.0 16.0 20.0
539 2 0.0 36.0 16.0 20.0
540 2 0.0 40.0 16.0 20.0
541 2 0.0 4.0 20.0 20.0
542 2 0.0 8.0 20.0 20.0
543 2 0.0 12.0 20.0 20.0
544 2 0.0 16.0 20.0 20.0
545 2 0.0 20.0 20.0 20.0
546 2 0.0 24.0 20.0 20.0
547 2 0.0 28.0 20.0 20.0
548 2 0.0 32.0 20.0 20.0
549 2 0.0 36.0 20.0 20.0
550 2 0.0 40.0 20.0 20.0
551 2 0.0 4.0 24.0 20.0
552 2 0.0 8.0 24.0 20.0
553 2 0.0 12.0 24.0 20.0
554 2 0.0 16.0 24.0 20.0
555 2 0.0 20.0 24.0 20.0
556 2 0.0 24.0 24.0 20.0
557 2 0.0 28.0 24.0 20.0
558 2 0.0 32.0 24.0 20.0
559 2 0.0 36.0 24.0 20.0
560 2 0.0 40.0 24.0 20.0
561 2 0.0 4.0 28.0 20.0
562 2 0.0 8.0 28.0 20.0
563 2 0.0 12.0 28.0 20.0
564 2 0.0 16.0 28.0 20.0
565 2 0.0 20.0 28.0 20.0
566 2 0.0 24.0 28.0 20.0
567 2 0.0 28.0 28.0 20.0
568 2 0.0 32.0 28.0 20.0
569 2 0.0 36.0 28.0 20.0
570 2 0.0 40.0 28.0 20.0
571 2 0.0 4.0 32.0 20.0
572 2 0.0 8.0 32.0 20.0
573 2 0.0 12.0 32.0 20.0
574 2 0.0 16.0 32.0 20.0
575 2 0.0 20.0 32.0 20.0
576 2 0.0 24.0 32.0 20.0
577 2 0.0 28.0 32.0 20.0
578 2 0.0 32.0 32.0 20.0
579 2 0.0 36.0 32.0 20.0
580 2 0.0 40.0 32.0 20.0
581 2 0.0 4.0 36.0 20.0
582 2 0.0 8.0 36.0 20.0
583 2 0.0 12.0 36.0 20.0
584 2 0.0 16.0 36.0 20.0
585 2 0.0 20.0 36.0 20.0
586 2 0.0 24.0 36.0 20.0
587 2 0.0 28.0 36.0 20.0
588 2 0.0 32.0 36.0 20.0
589 2 0.0 36.0 36.0 20.0
590 2 0.0 40.0 36.0 20.0
591 2 0.0 4.0 40.0 20.0
592 2 0.0 8.0 40.0 20.0
593 2 0.0 12.0 40.0 20.0
594 2 0.0 16.0 40.0 20.0
595 2 0.0 20.0 40.0 20.0
596 2 0.0 24.0 40.0 20.0
597 2 0.0 28.0 40.0 20.0
598 2 0.0 32.0 40.0 20.0
599 2 0.0 36.0 40.0 20.0
600 2 0.0 40.0 40.0 20.0
601 2 0.0 4.0 4.0 24.0
602 2 0.0 8.0 4.0 24.0
603 2 0.0 12.0 4.0 24.0
604 2 0.0 16.0 4.0 24.0
605 2 0.0 20.0 4.0 24.0
606 2 0.0 24.0 4.0 24.0
607 2 0.0 28.0 4.0 24.0
608 2 0.0 32.0 4.0 24.0
609 2 0.0 36.0 4.0 24.0
610 2 0.0 40.0 4.0 24.0
611 2 0.0 4.0 8.0 24.0
612 2 0.0 8.0 8.0 24.0
613 2 0.0 12.0 8.0 24.0
614 2 0.0 16.0 8.0 24.0
615 2 0.0 20.0 8.0 24.0
616 2 0.0 24.0 8.0 24.0
617 2 0.0 28.0 8.0 24.0
618 2 0.0 32.0 8.0 24.0
619 2 0.0 36.0 8.0 24.0
620 2 0.0 40.0 8.0 24.0
621 2 0.0 4.0 12.0 24.0
622 2 0.0 8.0 12.0 24.0
623 2 0.0 12.0 12.0 24.0
624 2 0.0 16.0 12.0 24.0
625 2 0.0 20.0 12.0 24.0
626 2 0.0 24.0 12.0 24.0
627 2 0.0 28.0 12.0 24.0
628 2 0.0 32.0 12.0 24.0
629 2 0.0 36.0 12.0 24.0
630 2 0.0 40.0 12.0 24.0
631 2 0.0 4.0 16.0 24.0
632 2 0.0 8.0 16.0 24.0
633 2 0.0 12.0 16.0 24.0
634 2 0.0 16.0 16.0 24.0
635 2 0.0 20.0 16.0 24.0
636 2 0.0 24.0 16.0 24.0
637 2 0.0 28.0 16.0 24.0
638 2 0.0 32.0 16.0 24.0
639 2 0.0 36.0 16.0 24.0
640 2 0.0 40.0 16.0 24.0
641 2 0.0 4.0 20.0 24.0
642 2 0.0 8.0 20.0 24.0
643 2 0.0 12.0 20.0 24.0
644 2 0.0 16.0 20.0 24.0
645 2 0.0 20.0 20.0 24.0
646 2 0.0 24.0 20.0 24.0
647 2 0.0 28.0 20.0 24.0
648 2 0.0 32.0 20.0 24.0
649 2 0.0 36.0 20.0 24.0
650 2 0.0 40.0 20.0 24.0
651 2 0.0 4.0 24.0 24.0
652 2 0.0 8.0 24.0 24.0
653 2 0.0 12.0 24.0 24.0
654 2 0.0 16.0 24.0 24.0
655 2 0.0 20.0 24.0 24.0
656 2 0.0 24.0 24.0 24.0
657 2 0.0 28.0 24.0 24.0
658 2 0.0 32.0 24.0 24.0
659 2 0.0 36.0 24.0 24.0
660 2 0.0 40.0 24.0 24.0
661 2 0.0 4.0 28.0 24.0
662 2 0.0 8.0 28.0 24.0
663 2 0.0 12.0 28.0 24.0
664 2 0.0 16.0 28.0 24.0
665 2 0.0 20.0 28.0 24.0
666 2 0.0 24.0 28.0 24.0
667 2 0.0 28.0 28.0 24.0
668 2 0.0 32.0 28.0 24.0
669 2 0.0 36.0 28.0 24.0
670 2 0.0 40.0 28.0 24.0
671 2 0.0 4.0 32.0 24.0
672 2 0.0 8.0 32.0 24.0
673 2 0.0 12.0 32.0 24.0
674 2 0.0 16.0 32.0 24.0
675 2 0.0 20.0 32.0 24.0
676 2 0.0 24.0 32.0 24.0
677 2 0.0 28.0 32.0 24.0
678 2 0.0 32.0 32.0 24.0
679 2 0.0 36.0 32.0 24.0
680 2 0.0 40.0 32.0 24.0
681 2 0.0 4.0 36.0 24.0
682 2 0.0 8.0 36.0 24.0
683 2 0.0 12.0 36.0 24.0
684 2 0.0 16.0 36.0 24.0
685 2 0.0 20.0 36.0 24.0
686 2 0.0 24.0 36.0 24.0
687 2 0.0 28.0 36.0 24.0
688 2 0.0 32.0 36.0 24.0
689 2 0.0 36.0 36.0 24.0
690 2 0.0 40.0 36.0 24.0
691 2 0.0 4.0 40.0 24.0
692 2 0.0 8.0 40.0 24.0
693 2 0.0 12.0 40.0 24.0
694 2 0.0 16.0 40.0 24.0
695 2 0.0 20.0 40.0 24.0
696 2 0.0 24.0 40.0 24.0
697 2 0.0 28.0 40.0 24.0
698 2 0.0 32.0 40.0 24.0
699 2 0.0 36.0 40.0 24.0
700 2 0.0 40.0 40.0 24.0
701 2 0.0 4.0 4.0 28.0
702 2 0.0 8.0 4.0 28.0
703 2 0.0 12.0 4.0 28.0
704 2 0.0 16.0 4.0 28.0
705 2 0.0 20.0 4.0 28.0
706 2 0.0 24.0 4.0 28.0
707 2 0.0 28.0 4.0 28.0
708 2 0.0 32.0 4.0 28.0
709 2 0.0 36.0 4.0 28.0
710 2 0.0 40.0 4.0 28.0
711 2 0.0 4.0 8.0 28.0
712 2 0.0 8.0 8.0 28.0
713 2 0.0 12.0 8.0 28.0
714 2 0.0 16.0 8.0 28.0
715 2 0.0 20.0 8.0 28.0
716 2 0.0 24.0 8.0 28.0
717 2 0.0 28.0 8.0 28.0
718 2 0.0 32.0 8.0 28.0
719 2 0.0 36.0 8.0 28.0
720 2 0.0 40.0 8.0 28.0
721 2 0.0 4.0 12.0 28.0
722 2 0.0 8.0 12.0 28.0
723 2 0.0 12.0 12.0 28.0
724 2 0.0 16.0 12.0 28.0
725 2 0.0 20.0 12.0 28.0
726 2 0.0 24.0 12.0 28.0
727 2 0.0 28.0 12.0 28.0
728 2 0.0 32.0 12.0 28.0
729 2 0.0 36.0 12.0 28.0
730 2 0.0 40.0 12.0 28.0
731 2 0.0 4.0 16.0 28.0
732 2 0.0 8.0 16.0 28.0
733 2 0.0 12.0 16.0 28.0
734 2 0.0 16.0 16.0 28.0
735 2 0.0 20.0 16.0 28.0
736 2 0.0 24.0 16.0 28.0
737 2 0.0 28.0 16.0 28.0
738 2 0.0 32.0 16.0 28.0
739 2 0.0 36.0 16.0 28.0
740 2 0.0 40.0 16.0 28.0
741 2 0.0 4.0 20.0 28.0
742 2 0.0 8.0 20.0 28.0
743 2 0.0 12.0 20.0 28.0
744 2 0.0 16.0 20.0 28.0
745 2 0.0 20.0 20.0 28.0
746 2 0.0 24.0 20.0 28.0
747 2 0.0 28.0 20.0 28.0
748 2 0.0 32.0 20.0 28.0
749 2 0.0 36.0 20.0 28.0
750 2 0.0 40.0 20.0 28.0
751 2 0.0 4.0 24.0 28.0
752 2 0.0 8.0 24.0 28.0
753 2 0.0 12.0 24.0 28.0
754 2 0.0 16.0 24.0 28.0
755 2 0.0 20.0 24.0 28.0
756 2 0.0 24.0 24.0 28.0
757 2 0.0 28.0 24.0 28.0
758 2 0.0 32.0 24.0 28.0
759 2 0.0 36.0 24.0 28.0
760 2 0.0 40.0 24.0 28.0
761 2 0.0 4.0 28.0 28.0
762 2 0.0 8.0 28.0 28.0
763 2 0.0 12.0 28.0 28.0
764 2 0.0 16.0 28.0 28.0
765 2 0.0 20.0 28.0 28.0
766 2 0.0 24.0 28.0 28.0
767 2 0.0 28.0 28.0 28.0
768 2 0.0 32.0 28.0 28.0
769 2 0.0 36.0 28.0 28.0
770 2 0.0 40.0 28.0 28.0
771 2 0.0 4.0 32.0 28.0
772 2 0.0 8.0 32.0 28.0
773 2 0.0 12.0 32.0 28.0
774 2 0.0 16.0 32.0 28.0
775 2 0.0 20.0 32.0 28.0
776 2 0.0 24.0 32.0 28.0
777 2 0.0 28.0 32.0 28.0
778 2 0.0 32.0 32.0 28.0
779 2 0.0 36.0 32.0 28.0
780 2 0.0 40.0 32.0 28.0
781 2 0.0 4.0 36.0 28.0
782 2 0.0 8.0 36.0 28.0
783 2 0.0 12.0 36.0 28.0
784 2 0.0 16.0 36.0 28.0
785 2 0.0 20.0 36.0 28.0
786 2 0.0 24.0 36.0 28.0
787 2 0.0 28.0 36.0 28.0
788 2 0.0 32.0 36.0 28.0
789 2 0.0 36.0 36.0 28.0
790 2 0.0 40.0 36.0 28.0
791 2 0.0 4.0 40.0 28.0
792 2 0.0 8.0 40.0 28.0
793 2 0.0 12.0 40.0 28.0
794 2 0.0 16.0 40.0 28.0
795 2 0.0 20.0 40.0 28.0
796 2 0.0 24.0 40.0 28.0
797 2 0.0 28.0 40.0 28.0
798 2 0.0 32.0 40.0 28.0
799 2 0.0 36.0 40.0 28.0
800 2 0.0 40.0 40.0 28.0
801 2 0.0 4.0 4.0 32.0
802 2 0.0 8.0 4.0 32.0
803 2 0.0 12.0 4.0 32.0
804 2 0.0 16.0 4.0 32.0
805 2 0.0 20.0 4.0 32.0
806 2 0.0 24.0 4.0 32.0
807 2 0.0 28.0 4.0 32.0
808 2 0.0 32.0 4.0 32.0
809 2 0.0 36.0 4.0 32.0
810 2 0.0 40.0 4.0 32.0
811 2 0.0 4.0 8.0 32.0
812 2 0.0 8.0 8.0 32.0
813 2 0.0 12.0 8.0 32.0
814 2 0.0 16.0 8.0 32.0
815 2 0.0 20.0 8.0 32.0
816 2 0.0 24.0 8.0 32.0
817 2 0.0 28.0 8.0 32.0
818 2 0.0 32.0 8.0 32.0
819 2 0.0 36.0 8.0 32.0
820 2 0.0 40.0 8.0 32.0
821 2 0.0 4.0 12.0 32.0
822 2 0.0 8.0 12.0 32.0
823 2 0.0 12.0 12.0 32.0
824 2 0.0 16.0 12.0 32.0
825 2 0.0 20.0 12.0 32.0
826 2 0.0 24.0 12.0 32.0
827 2 0.0 28.0 12.0 32.0
828 2 0.0 32.0 12.0 32.0
829 2 0.0 36.0 12.0 32.0
830 2 0.0 40.0 12.0 32.0
831 2 0.0 4.0 16.0 32.0
832 2 0.0 8.0 16.0 32.0
833 2 0.0 12.0 16.0 32.0
834 2 0.0 16.0 16.0 32.0
835 2 0.0 20.0 16.0 32.0
836 2 0.0 24.0 16.0 32.0
837 2 0.0 28.0 16.0 32.0
838 2 0.0 32.0 16.0 32.0
839 2 0.0 36.0 16.0 32.0
840 2 0.0 40.0 16.0 32.0
841 2 0.0 4.0 20.0 32.0
842 2 0.0 8.0 20.0 32.0
843 2 0.0 12.0 20.0 32.0
844 2 0.0 16.0 20.0 32.0
845 2 0.0 20.0 20.0 32.0
846 2 0.0 24.0 20.0 32.0
847 2 0.0 28.0 20.0 32.0
848 2 0.0 32.0 20.0 32.0
849 2 0.0 36.0 20.0 32.0
850 2 0.0 40.0 20.0 32.0
851 2 0.0 4.0 24.0 32.0
852 2 0.0 8.0 24.0 32.0
853 2 0.0 12.0 24.0 32.0
854 2 0.0 16.0 24.0 32.0
855 2 0.0 20.0 24.0 32.0
856 2 0.0 24.0 24.0 32.0
857 2 0.0 28.0 24.0 32.0
858 2 0.0 32.0 24.0 32.0
859 2 0.0 36.0 24.0 32.0
860 2 0.0 40.0 24.0 32.0
861 2 0.0 4.0 28.0 32.0
862 2 0.0 8.0 28.0 32.0
863 2 0.0 12.0 28.0 32.0
864 2 0.0 16.0 28.0 32.0
865 2 0.0 20.0 28.0 32.0
866 2 0.0 24.0 28.0 32.0
867 2 0.0 28.0 28.0 32.0
868 2 0.0 32.0 28.0 32.0
869 2 0.0 36.0 28.0 32.0
870 2 0.0 40.0 28.0 32.0
871 2 0.0 4.0 32.0 32.0
872 2 0.0 8.0 32.0 32.0
873 2 0.0 12.0 32.0 32.0
874 2 0.0 16.0 32.0 32.0
875 2 0.0 20.0 32.0 32.0
876 2 0.0 24.0 32.0 32.0
877 2 0.0 28.0 32.0 32.0
878 2 0.0 32.0 32.0 32.0
879 2 0.0 36.0 32.0 32.0
880 2 0.0 40.0 32.0 32.0
881 2 0.0 4.0 36.0 32.0
882 2 0.0 8.0 36.0 32.0
883 2 0.0 12.0 36.0 32.0
884 2 0.0 16.0 36.0 32.0
885 2 0.0 20.0 36.0 32.0
886 2 0.0 24.0 36.0 32.0
887 2 0.0 28.0 36.0 32.0
888 2 0.0 32.0 36.0 32.0
889 2 0.0 36.0 36.0 32.0
890 2 0.0 40.0 36.0 32.0
891 2 0.0 4.0 40.0 32.0
892 2 0.0 8.0 40.0 32.0
893 2 0.0 12.0 40.0 32.0
894 2 0.0 16.0 40.0 32.0
895 2 0.0 20.0 40.0 32.0
896 2 0.0 24.0 40.0 32.0
897 2 0.0 28.0 40.0 32.0
898 2 0.0 32.0 40.0 32.0
899 2 0.0 36.0 40.0 32.0
900 2 0.0 40.0 40.0 32.0
901 2 0.0 4.0 4.0 36.0
902 2 0.0 8.0 4.0 36.0
903 2 0.0 12.0 4.0 36.0
904 2 0.0 16.0 4.0 36.0
905 2 0.0 20.0 4.0 36.0
906 2 0.0 24.0 4.0 36.0
907 2 0.0 28.0 4.0 36.0
908 2 0.0 32.0 4.0 36.0
909 2 0.0 36.0 4.0 36.0
910 2 0.0 40.0 4.0 36.0
911 2 0.0 4.0 8.0 36.0
912 2 0.0 8.0 8.0 36.0
913 2 0.0 12.0 8.0 36.0
914 2 0.0 16.0 8.0 36.0
915 2 0.0 20.0 8.0 36.0
916 2 0.0 24.0 8.0 36.0
917 2 0.0 28.0 8.0 36.0
918 2 0.0 32.0 8.0 36.0
919 2 0.0 36.0 8.0 36.0
920 2 0.0 40.0 8.0 36.0
921 2 0.0 4.0 12.0 36.0
922 2 0.0 8.0 12.0 36.0
923 2 0.0 12.0 12.0 36.0
924 2 0.0 16.0 12.0 36.0
925 2 0.0 20.0 12.0 36.0
926 2 0.0 24.0 12.0 36.0
927 2 0.0 28.0 12.0 36.0
928 2 0.0 32.0 12.0 36.0
929 2 0.0 36.0 12.0 36.0
930 2 0.0 40.0 12.0 36.0
931 2 0.0 4.0 16.0 36.0
932 2 0.0 8.0 16.0 36.0
933 2 0.0 12.0 16.0 36.0
934 2 0.0 16.0 16.0 36.0
935 2 0.0 20.0 16.0 36.0
936 2 0.0 24.0 16.0 36.0
937 2 0.0 28.0 16.0 36.0
938 2 0.0 32.0 16.0 36.0
939 2 0.0 36.0 16.0 36.0
940 2 0.0 40.0 16.0 36.0
941 2 0.0 4.0 20.0 36.0
942 2 0.0 8.0 20.0 36.0
943 2 0.0 12.0 20.0 36.0
944 2 0.0 16.0 20.0 36.0
945 2 0.0 20.0 20.0 36.0
946 2 0.0 24.0 20.0 36.0
947 2 0.0 28.0 20.0 36.0
948 2 0.0 32.0 20.0 36.0
949 2 0.0 36.0 20.0 36.0
950 2 0.0 40.0 20.0 36.0
951 2 0.0 4.0 24.0 36.0
952 2 0.0 8.0 24.0 36.0
953 2 0.0 12.0 24.0 36.0
954 2 0.0 16.0 24.0 36.0
955 2 0.0 20.0 24.0 36.0
956 2 0.0 24.0 24.0 36.0
957 2 0.0 28.0 24.0 36.0
958 2 0.0 32.0 24.0 36.0
959 2 0.0 36.0 24.0 36.0
960 2 0.0 40.0 24.0 36.0
961 2 0.0 4.0 28.0 36.0
962 2 0.0 8.0 28.0 36.0
963 2 0.0 12.0 28.0 36.0
964 2 0.0 16.0 28.0 36.0
965 2 0.0 20.0 28.0 36.0
966 2 0.0 24.0 28.0 36.0
967 2 0.0 28.0 28.0 36.0
968 2 0.0 32.0 28.0 36.0
969 2 0.0 36.0 28.0 36.0
970 2 0.0 40.0 28.0 36.0
971 2 0.0 4.0 32.0 36.0
972 2 0.0 8.0 32.0 36.0
973 2 0.0 12.0 32.0 36.0
974 2 0.0 16.0 32.0 36.0
975 2 0.0 20.0 32.0 36.0
976 2 0.0 24.0 32.0 36.0
977 2 0.0 28.0 32.0 36.0
978 2 0.0 32.0 32.0 36.0
979 2 0.0 36.0 32.0 36.0
980 2 0.0 40.0 32.0 36.0
981 2 0.0 4.0 36.0 36.0
982 2 0.0 8.0 36.0 36.0
983 2 0.0 12.0 36.0 36.0
984 2 0.0 16.0 36.0 36.0
985 2 0.0 20.0 36.0 36.0
986 2 0.0 24.0 36.0 36.0
987 2 0.0 28.0 36.0 36.0
988 2 0.0 32.0 36.0 36.0
989 2 0.0 36.0 36.0 36.0
990 2 0.0 40.0 36.0 36.0
991 2 0.0 4.0 40.0 36.0
992 2 0.0 8.0 40.0 36.0
993 2 0.0 12.0 40.0 36.0
994 2 0.0 16.0 40.0 36.0
995 2 0.0 20.0 40.0 36.0
996 2 0.0 24.0 40.0 36.0
997 2 0.0 28.0 40.0 36.0
998 2 0.0 32.0 40.0 36.0
999 2 0.0 36.0 40.0 36.0
1000 2 0.0 40.0 40.0 36.0
